# Objective value = 7.0509100000000017e+03
I_0_0 2318
I_0_1 2.9170000000000005e+03
I_0_2 2.4290000000000014e+03
I_0_3 3.4280000000000009e+03
I_1_0 79
I_1_1 0
I_1_2 79
I_1_3 0
I_2_0 98
I_2_1 98
I_2_2 98
I_2_3 0
I_3_0 57
I_3_1 0
I_3_2 57
I_3_3 0
I_4_0 106
I_4_1 53
I_4_2 106
I_4_3 53
I_5_0 148
I_5_1 74
I_5_2 148
I_5_3 74
I_6_0 85
I_6_1 0
I_6_2 85
I_6_3 0
I_7_0 64
I_7_1 32
I_7_2 64
I_7_3 32
I_8_0 68
I_8_1 68
I_8_2 68
I_8_3 0
I_9_0 116
I_9_1 116
I_9_2 5.7999999999999559e+01
I_9_3 -4.4408920985006262e-13
I_10_0 29
I_10_1 -2.0283774659901610e-13
I_10_2 29
I_10_3 0
I_11_0 106
I_11_1 1.0599999999999999e+02
I_11_2 5.2999999999999623e+01
I_11_3 -3.7836400679225335e-13
I_12_0 54
I_12_1 54
I_12_2 54
I_12_3 0
I_13_0 36
I_13_1 18
I_13_2 36
I_13_3 18
I_14_0 69
I_14_1 69
I_14_2 69
I_14_3 0
I_15_0 65
I_15_1 0
I_15_2 65
I_15_3 0
I_16_0 42
I_16_1 21
I_16_2 42
I_16_3 21
I_17_0 13
I_17_1 -9.2370555648813024e-14
I_17_2 13
I_17_3 0
I_18_0 39
I_18_1 0
I_18_2 39
I_18_3 0
I_19_0 23
I_19_1 -1.6470158570314197e-13
I_19_2 23
I_19_3 0
I_20_0 22
I_20_1 1.0999999999999844e+01
I_20_2 2.2000000000000203e+01
I_20_3 1.1000000000000203e+01
q_1_0 0
q_1_1 158
q_1_2 0
q_2_0 98
q_2_1 98
q_2_2 0
q_3_0 0
q_3_1 114
q_3_2 0
q_4_0 0
q_4_1 106
q_4_2 0
q_5_0 0
q_5_1 148
q_5_2 0
q_6_0 0
q_6_1 170
q_6_2 0
q_7_0 0
q_7_1 64
q_7_2 0
q_8_0 68
q_8_1 68
q_8_2 0
q_9_0 58
q_9_1 -4.4053649617126212e-13
q_9_2 0
q_10_0 -2.0283774659901610e-13
q_10_1 58.0000000000002
q_10_2 0
q_11_0 5.2999999999999986e+01
q_11_1 -7.4962258622690570e-13
q_11_2 0
q_12_0 54
q_12_1 54
q_12_2 0
q_13_0 0
q_13_1 36
q_13_2 0
q_14_0 69
q_14_1 69
q_14_2 0
q_15_0 0
q_15_1 130
q_15_2 0
q_16_0 0
q_16_1 42
q_16_2 0
q_17_0 -9.2370555648813024e-14
q_17_1 2.6000000000000092e+01
q_17_2 0
q_18_0 0
q_18_1 78
q_18_2 0
q_19_0 -1.6470158570314197e-13
q_19_1 4.6000000000000163e+01
q_19_2 0
q_20_0 -1.5631940186722204e-13
q_20_1 2.2000000000000398e+01
q_20_2 0
y_0_0 1
y_0_1 1
y_0_2 0
y_1_0 0
y_1_1 1
y_1_2 0
y_2_0 1
y_2_1 1
y_2_2 0
y_3_0 0
y_3_1 1
y_3_2 0
y_4_0 0
y_4_1 1
y_4_2 0
y_5_0 0
y_5_1 1
y_5_2 0
y_6_0 0
y_6_1 1
y_6_2 0
y_7_0 0
y_7_1 1
y_7_2 0
y_8_0 1
y_8_1 1
y_8_2 0
y_9_0 1
y_9_1 -7.6327832942979512e-15
y_9_2 0
y_10_0 -6.9944050551384862e-15
y_10_1 1
y_10_2 0
y_11_0 9.9999999999999978e-01
y_11_1 -7.13318293321663e-15
y_11_2 0
y_12_0 1
y_12_1 1
y_12_2 0
y_13_0 0
y_13_1 1
y_13_2 0
y_14_0 1
y_14_1 1
y_14_2 0
y_15_0 0
y_15_1 1
y_15_2 0
y_16_0 0
y_16_1 1
y_16_2 0
y_17_0 -7.1054273576010019e-15
y_17_1 1
y_17_2 0
y_18_0 0
y_18_1 1
y_18_2 0
y_19_0 -7.16093850883226e-15
y_19_1 1
y_19_2 0
y_20_0 -1.4210854715202004e-14
y_20_1 1.0000000000000182e+00
y_20_2 0
x_0_1_0 0
x_0_1_1 0
x_0_1_2 0
x_0_2_0 0
x_0_2_1 0
x_0_2_2 0
x_0_3_0 0
x_0_3_1 0
x_0_3_2 0
x_0_4_0 0
x_0_4_1 0
x_0_4_2 0
x_0_5_0 0
x_0_5_1 0
x_0_5_2 0
x_0_6_0 0
x_0_6_1 0
x_0_6_2 0
x_0_7_0 0
x_0_7_1 0
x_0_7_2 0
x_0_8_0 0
x_0_8_1 0
x_0_8_2 0
x_0_9_0 1.0000000000000213e+00
x_0_9_1 0
x_0_9_2 0
x_0_10_0 0
x_0_10_1 0
x_0_10_2 0
x_0_11_0 0
x_0_11_1 0
x_0_11_2 0
x_0_12_0 0
x_0_12_1 0
x_0_12_2 0
x_0_13_0 0
x_0_13_1 0
x_0_13_2 0
x_0_14_0 1.0000000000000142e+00
x_0_14_1 -5.1625370645069779e-15
x_0_14_2 0
x_0_15_0 0
x_0_15_1 0
x_0_15_2 0
x_0_16_0 0
x_0_16_1 0
x_0_16_2 0
x_0_17_0 0
x_0_17_1 0
x_0_17_2 0
x_0_18_0 0
x_0_18_1 9.9999999999998723e-01
x_0_18_2 0
x_0_19_0 0
x_0_19_1 0
x_0_19_2 0
x_0_20_0 -2.8421709430404007e-14
x_0_20_1 1.0000000000000215e+00
x_0_20_2 0
x_1_2_0 0
x_1_2_1 0
x_1_2_2 0
x_1_3_0 0
x_1_3_1 0
x_1_3_2 0
x_1_4_0 0
x_1_4_1 1.0000000000000144e+00
x_1_4_2 0
x_1_5_0 0
x_1_5_1 0
x_1_5_2 0
x_1_6_0 0
x_1_6_1 -1.4321877017664519e-14
x_1_6_2 0
x_1_7_0 0
x_1_7_1 1
x_1_7_2 0
x_1_8_0 0
x_1_8_1 0
x_1_8_2 0
x_1_9_0 0
x_1_9_1 0
x_1_9_2 0
x_1_10_0 0
x_1_10_1 0
x_1_10_2 0
x_1_11_0 0
x_1_11_1 0
x_1_11_2 0
x_1_12_0 0
x_1_12_1 0
x_1_12_2 0
x_1_13_0 0
x_1_13_1 0
x_1_13_2 0
x_1_14_0 0
x_1_14_1 0
x_1_14_2 0
x_1_15_0 0
x_1_15_1 0
x_1_15_2 0
x_1_16_0 0
x_1_16_1 0
x_1_16_2 0
x_1_17_0 0
x_1_17_1 0
x_1_17_2 0
x_1_18_0 0
x_1_18_1 0
x_1_18_2 0
x_1_19_0 0
x_1_19_1 0
x_1_19_2 0
x_1_20_0 0
x_1_20_1 0
x_1_20_2 0
x_2_3_0 0
x_2_3_1 0
x_2_3_2 0
x_2_4_0 0
x_2_4_1 0
x_2_4_2 0
x_2_5_0 0
x_2_5_1 0
x_2_5_2 0
x_2_6_0 0
x_2_6_1 0
x_2_6_2 0
x_2_7_0 0
x_2_7_1 0
x_2_7_2 0
x_2_8_0 0
x_2_8_1 0
x_2_8_2 0
x_2_9_0 0
x_2_9_1 0
x_2_9_2 0
x_2_10_0 -6.9944050551384862e-15
x_2_10_1 0
x_2_10_2 0
x_2_11_0 9.9999999999999278e-01
x_2_11_1 -7.13318293321663e-15
x_2_11_2 0
x_2_12_0 1.0000000000000071e+00
x_2_12_1 1.0000000000000002e+00
x_2_12_2 0
x_2_13_0 0
x_2_13_1 0
x_2_13_2 0
x_2_14_0 0
x_2_14_1 0
x_2_14_2 0
x_2_15_0 0
x_2_15_1 0
x_2_15_2 0
x_2_16_0 0
x_2_16_1 1.0000000000000113e+00
x_2_16_2 0
x_2_17_0 0
x_2_17_1 0
x_2_17_2 0
x_2_18_0 0
x_2_18_1 0
x_2_18_2 0
x_2_19_0 0
x_2_19_1 0
x_2_19_2 0
x_2_20_0 0
x_2_20_1 0
x_2_20_2 0
x_3_4_0 0
x_3_4_1 9.9999999999999956e-01
x_3_4_2 0
x_3_5_0 0
x_3_5_1 0
x_3_5_2 0
x_3_6_0 0
x_3_6_1 0
x_3_6_2 0
x_3_7_0 0
x_3_7_1 0
x_3_7_2 0
x_3_8_0 0
x_3_8_1 0
x_3_8_2 0
x_3_9_0 0
x_3_9_1 0
x_3_9_2 0
x_3_10_0 0
x_3_10_1 0
x_3_10_2 0
x_3_11_0 0
x_3_11_1 0
x_3_11_2 0
x_3_12_0 0
x_3_12_1 0
x_3_12_2 0
x_3_13_0 0
x_3_13_1 9.9999999999999978e-01
x_3_13_2 0
x_3_14_0 0
x_3_14_1 0
x_3_14_2 0
x_3_15_0 0
x_3_15_1 0
x_3_15_2 0
x_3_16_0 0
x_3_16_1 0
x_3_16_2 0
x_3_17_0 0
x_3_17_1 0
x_3_17_2 0
x_3_18_0 0
x_3_18_1 0
x_3_18_2 0
x_3_19_0 0
x_3_19_1 0
x_3_19_2 0
x_3_20_0 0
x_3_20_1 0
x_3_20_2 0
x_4_5_0 0
x_4_5_1 -1.4210854715202004e-14
x_4_5_2 0
x_4_6_0 0
x_4_6_1 0
x_4_6_2 0
x_4_7_0 0
x_4_7_1 0
x_4_7_2 0
x_4_8_0 0
x_4_8_1 0
x_4_8_2 0
x_4_9_0 0
x_4_9_1 0
x_4_9_2 0
x_4_10_0 0
x_4_10_1 0
x_4_10_2 0
x_4_11_0 0
x_4_11_1 0
x_4_11_2 0
x_4_12_0 0
x_4_12_1 0
x_4_12_2 0
x_4_13_0 0
x_4_13_1 0
x_4_13_2 0
x_4_14_0 0
x_4_14_1 0
x_4_14_2 0
x_4_15_0 0
x_4_15_1 0
x_4_15_2 0
x_4_16_0 0
x_4_16_1 0
x_4_16_2 0
x_4_17_0 0
x_4_17_1 0
x_4_17_2 0
x_4_18_0 0
x_4_18_1 0
x_4_18_2 0
x_4_19_0 0
x_4_19_1 0
x_4_19_2 0
x_4_20_0 0
x_4_20_1 0
x_4_20_2 0
x_5_6_0 0
x_5_6_1 0
x_5_6_2 0
x_5_7_0 0
x_5_7_1 1
x_5_7_2 0
x_5_8_0 0
x_5_8_1 0
x_5_8_2 0
x_5_9_0 0
x_5_9_1 0
x_5_9_2 0
x_5_10_0 0
x_5_10_1 0
x_5_10_2 0
x_5_11_0 0
x_5_11_1 0
x_5_11_2 0
x_5_12_0 0
x_5_12_1 0
x_5_12_2 0
x_5_13_0 0
x_5_13_1 0
x_5_13_2 0
x_5_14_0 0
x_5_14_1 0
x_5_14_2 0
x_5_15_0 0
x_5_15_1 0
x_5_15_2 0
x_5_16_0 0
x_5_16_1 0
x_5_16_2 0
x_5_17_0 0
x_5_17_1 1.0000000000000142e+00
x_5_17_2 0
x_5_18_0 0
x_5_18_1 0
x_5_18_2 0
x_5_19_0 0
x_5_19_1 0
x_5_19_2 0
x_5_20_0 0
x_5_20_1 0
x_5_20_2 0
x_6_7_0 0
x_6_7_1 0
x_6_7_2 0
x_6_8_0 0
x_6_8_1 0
x_6_8_2 0
x_6_9_0 0
x_6_9_1 0
x_6_9_2 0
x_6_10_0 0
x_6_10_1 0
x_6_10_2 0
x_6_11_0 0
x_6_11_1 0
x_6_11_2 0
x_6_12_0 0
x_6_12_1 0
x_6_12_2 0
x_6_13_0 0
x_6_13_1 0
x_6_13_2 0
x_6_14_0 0
x_6_14_1 0
x_6_14_2 0
x_6_15_0 0
x_6_15_1 1
x_6_15_2 0
x_6_16_0 0
x_6_16_1 0
x_6_16_2 0
x_6_17_0 0
x_6_17_1 1.0000000000000087e+00
x_6_17_2 0
x_6_18_0 0
x_6_18_1 0
x_6_18_2 0
x_6_19_0 0
x_6_19_1 0
x_6_19_2 0
x_6_20_0 0
x_6_20_1 5.5233595475101538e-15
x_6_20_2 0
x_7_8_0 0
x_7_8_1 0
x_7_8_2 0
x_7_9_0 0
x_7_9_1 0
x_7_9_2 0
x_7_10_0 0
x_7_10_1 0
x_7_10_2 0
x_7_11_0 0
x_7_11_1 0
x_7_11_2 0
x_7_12_0 0
x_7_12_1 0
x_7_12_2 0
x_7_13_0 0
x_7_13_1 0
x_7_13_2 0
x_7_14_0 0
x_7_14_1 0
x_7_14_2 0
x_7_15_0 0
x_7_15_1 0
x_7_15_2 0
x_7_16_0 0
x_7_16_1 0
x_7_16_2 0
x_7_17_0 0
x_7_17_1 0
x_7_17_2 0
x_7_18_0 0
x_7_18_1 0
x_7_18_2 0
x_7_19_0 0
x_7_19_1 0
x_7_19_2 0
x_7_20_0 0
x_7_20_1 0
x_7_20_2 0
x_8_9_0 0
x_8_9_1 0
x_8_9_2 0
x_8_10_0 0
x_8_10_1 0
x_8_10_2 0
x_8_11_0 1.0000000000000073e+00
x_8_11_1 -7.13318293321663e-15
x_8_11_2 0
x_8_12_0 0
x_8_12_1 1.0000000000000111e+00
x_8_12_2 0
x_8_13_0 0
x_8_13_1 0
x_8_13_2 0
x_8_14_0 1.0000000000000071e+00
x_8_14_1 -3.7192471324942744e-15
x_8_14_2 0
x_8_15_0 0
x_8_15_1 0
x_8_15_2 0
x_8_16_0 0
x_8_16_1 0
x_8_16_2 0
x_8_17_0 -6.9666494795228573e-15
x_8_17_1 -4.5519144009631418e-15
x_8_17_2 0
x_8_18_0 0
x_8_18_1 0
x_8_18_2 0
x_8_19_0 -7.0499162063697440e-15
x_8_19_1 1.0000000000000095e+00
x_8_19_2 0
x_8_20_0 0
x_8_20_1 0
x_8_20_2 0
x_9_10_0 -7.2719608112947753e-15
x_9_10_1 -7.6050277186823223e-15
x_9_10_2 0
x_9_11_0 0
x_9_11_1 0
x_9_11_2 0
x_9_12_0 1
x_9_12_1 -7.6327832942979512e-15
x_9_12_2 0
x_9_13_0 0
x_9_13_1 0
x_9_13_2 0
x_9_14_0 -1.4210854715202004e-14
x_9_14_1 0
x_9_14_2 0
x_9_15_0 0
x_9_15_1 0
x_9_15_2 0
x_9_16_0 0
x_9_16_1 0
x_9_16_2 0
x_9_17_0 0
x_9_17_1 0
x_9_17_2 0
x_9_18_0 0
x_9_18_1 0
x_9_18_2 0
x_9_19_0 0
x_9_19_1 0
x_9_19_2 0
x_9_20_0 0
x_9_20_1 0
x_9_20_2 0
x_10_11_0 0
x_10_11_1 0
x_10_11_2 0
x_10_12_0 0
x_10_12_1 0
x_10_12_2 0
x_10_13_0 0
x_10_13_1 1.0000000000000075e+00
x_10_13_2 0
x_10_14_0 0
x_10_14_1 0
x_10_14_2 0
x_10_15_0 0
x_10_15_1 0
x_10_15_2 0
x_10_16_0 0
x_10_16_1 1
x_10_16_2 0
x_10_17_0 0
x_10_17_1 0
x_10_17_2 0
x_10_18_0 0
x_10_18_1 0
x_10_18_2 0
x_10_19_0 0
x_10_19_1 0
x_10_19_2 0
x_10_20_0 0
x_10_20_1 0
x_10_20_2 0
x_11_12_0 0
x_11_12_1 0
x_11_12_2 0
x_11_13_0 0
x_11_13_1 0
x_11_13_2 0
x_11_14_0 0
x_11_14_1 0
x_11_14_2 0
x_11_15_0 0
x_11_15_1 0
x_11_15_2 0
x_11_16_0 0
x_11_16_1 0
x_11_16_2 0
x_11_17_0 0
x_11_17_1 0
x_11_17_2 0
x_11_18_0 0
x_11_18_1 0
x_11_18_2 0
x_11_19_0 0
x_11_19_1 0
x_11_19_2 0
x_11_20_0 0
x_11_20_1 0
x_11_20_2 0
x_12_13_0 0
x_12_13_1 0
x_12_13_2 0
x_12_14_0 -6.9944050551384862e-15
x_12_14_1 0
x_12_14_2 0
x_12_15_0 0
x_12_15_1 0
x_12_15_2 0
x_12_16_0 0
x_12_16_1 0
x_12_16_2 0
x_12_17_0 0
x_12_17_1 0
x_12_17_2 0
x_12_18_0 0
x_12_18_1 0
x_12_18_2 0
x_12_19_0 0
x_12_19_1 0
x_12_19_2 0
x_12_20_0 0
x_12_20_1 0
x_12_20_2 0
x_13_14_0 0
x_13_14_1 0
x_13_14_2 0
x_13_15_0 0
x_13_15_1 0
x_13_15_2 0
x_13_16_0 0
x_13_16_1 -7.13318293321663e-15
x_13_16_2 0
x_13_17_0 0
x_13_17_1 0
x_13_17_2 0
x_13_18_0 0
x_13_18_1 0
x_13_18_2 0
x_13_19_0 0
x_13_19_1 0
x_13_19_2 0
x_13_20_0 0
x_13_20_1 0
x_13_20_2 0
x_14_15_0 0
x_14_15_1 0
x_14_15_2 0
x_14_16_0 0
x_14_16_1 0
x_14_16_2 0
x_14_17_0 0
x_14_17_1 0
x_14_17_2 0
x_14_18_0 0
x_14_18_1 1.0000000000000127e+00
x_14_18_2 0
x_14_19_0 0
x_14_19_1 1
x_14_19_2 0
x_14_20_0 0
x_14_20_1 0
x_14_20_2 0
x_15_16_0 0
x_15_16_1 0
x_15_16_2 0
x_15_17_0 0
x_15_17_1 -8.7707618945387367e-15
x_15_17_2 0
x_15_18_0 0
x_15_18_1 0
x_15_18_2 0
x_15_19_0 0
x_15_19_1 0
x_15_19_2 0
x_15_20_0 0
x_15_20_1 1.0000000000000144e+00
x_15_20_2 0
x_16_17_0 0
x_16_17_1 0
x_16_17_2 0
x_16_18_0 0
x_16_18_1 0
x_16_18_2 0
x_16_19_0 0
x_16_19_1 0
x_16_19_2 0
x_16_20_0 0
x_16_20_1 0
x_16_20_2 0
x_17_18_0 0
x_17_18_1 0
x_17_18_2 0
x_17_19_0 -7.2442052356791464e-15
x_17_19_1 -9.5756735873919752e-15
x_17_19_2 0
x_17_20_0 0
x_17_20_1 0
x_17_20_2 0
x_18_19_0 0
x_18_19_1 0
x_18_19_2 0
x_18_20_0 0
x_18_20_1 0
x_18_20_2 0
x_19_20_0 0
x_19_20_1 0
x_19_20_2 0
